* Problem:    enlight4-prescaled
* Class:      LP
* Rows:       16
* Columns:    32
* Non-zeros:  80
* Format:     Free MPS
*
NAME enlight4-prescaled
ROWS
 N R0000000
 E R0000001
 E R0000002
 E R0000003
 E R0000004
 E R0000005
 E R0000006
 E R0000007
 E R0000008
 E R0000009
 E R0000010
 E R0000011
 E R0000012
 E R0000013
 E R0000014
 E R0000015
 E R0000016
COLUMNS
 c0 R0000000 1 R0000013 1
 c0 R0000009 1 R0000005 1
 c1 R0000000 1 R0000013 1
 c1 R0000006 1 R0000005 1
 c1 R0000001 1
 c2 R0000000 2.4328807982 R0000015 2.4328807982
 c2 R0000006 2.4328807982 R0000005 2.4328807982
 c2 R0000002 2.4328807982
 c3 R0000000 1.9729696595 R0000015 1.9729696595
 c3 R0000011 1.9729696595 R0000006 1.9729696595
 c4 R0000000 1 R0000013 1
 c4 R0000010 1 R0000009 1
 c4 R0000001 1
 c5 R0000000 1.6219205322 R0000009 1.6219205322
 c5 R0000005 1.6219205322 R0000003 1.6219205322
 c5 R0000002 1.6219205322 R0000001 1.6219205322
 c6 R0000000 1.4797272446 R0000011 1.4797272446
 c6 R0000006 1.4797272446 R0000004 1.4797272446
 c6 R0000002 1.4797272446 R0000001 1.4797272446
 c7 R0000000 1 R0000015 1
 c7 R0000012 1 R0000011 1
 c7 R0000002 1
 c8 R0000000 1.2 R0000014 1.2
 c8 R0000010 1.2 R0000009 1.2
 c8 R0000003 1.2
 c9 R0000000 1 R0000010 1
 c9 R0000007 1 R0000004 1
 c9 R0000003 1 R0000001 1
 c10 R0000000 1.9729696595 R0000012 1.9729696595
 c10 R0000008 1.9729696595 R0000004 1.9729696595
 c10 R0000003 1.9729696595 R0000002 1.9729696595
 c11 R0000000 1 R0000016 1
 c11 R0000012 1 R0000011 1
 c11 R0000004 1
 c12 R0000000 2.4662120743 R0000014 2.4662120743
 c12 R0000010 2.4662120743 R0000007 2.4662120743
 c13 R0000000 1.6219205322 R0000014 1.6219205322
 c13 R0000008 1.6219205322 R0000007 1.6219205322
 c13 R0000003 1.6219205322
 c14 R0000000 1 R0000016 1
 c14 R0000008 1 R0000007 1
 c14 R0000004 1
 c15 R0000000 1.2164403991 R0000016 1.2164403991
 c15 R0000012 1.2164403991 R0000008 1.2164403991
 c16 R0000001 -2
 c17 R0000002 -2
 c18 R0000003 -2
 c19 R0000004 -2
 c20 R0000005 -2
 c21 R0000006 -2
 c22 R0000007 -2
 c23 R0000008 -2
 c24 R0000009 -2
 c25 R0000010 -2
 c26 R0000011 -2
 c27 R0000012 -2
 c28 R0000013 -2
 c29 R0000014 -2
 c30 R0000015 -2
 c31 R0000016 -2
RHS
 RHS1 R0000013 -1
BOUNDS
 UP BND1 c0 1
 UP BND1 c1 1
 UP BND1 c2 0.4110353457
 UP BND1 c3 0.5068501663
 UP BND1 c4 1
 UP BND1 c5 0.6165530186
 UP BND1 c6 0.6758002217
 UP BND1 c7 1
 UP BND1 c8 0.8333333333
 UP BND1 c9 1
 UP BND1 c10 0.5068501663
 UP BND1 c11 1
 UP BND1 c12 0.405480133
 UP BND1 c13 0.6165530186
 UP BND1 c14 1
 UP BND1 c15 0.8220706914
ENDATA
